57 46 52 25 43 60 17 47 67 22 14 71 31 4 32 39 35 75 44 16 64 1 12 2 18 19 53 50 6 68 26 65 29 72 62 7 61 10 40 15 48 37 74 13 41 63 76 58 38 73 36 49 3 0 8 54 23 34 27 55 69 33 30 42 51 24 70 66 21 45 28 9 5 59 20 11 56 